Version identifier: 20.1.0.0 | 2020-11-10 | 9bedb6d68
CPXPARAM_LPMethod                                3
CPXPARAM_QPMethod                                3
CPXPARAM_Threads                                 4
CPXPARAM_MIP_Strategy_StartAlgorithm             3
CPXPARAM_Emphasis_MIP                            1
CPXPARAM_MIP_Limits_Solutions                    1
CPXPARAM_TimeLimit                               43195
Tried aggregator 1 time.
Reduced MIP has 14906 rows, 496 columns, and 49464 nonzeros.
Reduced MIP has 496 binaries, 0 generals, 0 SOSs, and 0 indicators.
Presolve time = 0,06 sec. (18,32 ticks)
Probing time = 0,00 sec. (0,97 ticks)
Tried aggregator 1 time.
Detecting symmetries...
Reduced MIP has 14906 rows, 496 columns, and 49464 nonzeros.
Reduced MIP has 496 binaries, 0 generals, 0 SOSs, and 0 indicators.
Presolve time = 0,04 sec. (22,43 ticks)
Probing time = 0,00 sec. (2,23 ticks)
MIP emphasis: integer feasibility.
MIP search method: dynamic search.
Parallel mode: deterministic, using up to 4 threads.
Root relaxation solution time = 3,50 sec. (775,19 ticks)

        Nodes                                         Cuts/
   Node  Left     Objective  IInf  Best Integer    Best Bound    ItCnt     Gap

      0     0       60,3798   275                     60,3798     2529         
      0     0       60,6919   337                   Cuts: 108     3051         
      0     0       60,8738   348                   Cuts: 125     3541         
      0     0       60,8942   370                ZeroHalf: 97     4007         
Detecting symmetries...
      0     2       60,8942   370                     60,8942     4007         
Elapsed time = 13,22 sec. (3002,25 ticks, tree = 0,02 MB, solutions = 0)
     11     6    infeasible                           61,0000     5367         
     15     5    infeasible                           61,0000     6161         

Zero-half cuts applied:  32
Lift and project cuts applied:  3

Root node processing (before b&c):
  Real time             =   13,20 sec. (2994,54 ticks)
Parallel b&c, 4 threads:
  Real time             =    2,85 sec. (580,00 ticks)
  Sync time (average)   =    0,69 sec.
  Wait time (average)   =    0,00 sec.
                          ------------
Total (root+branch&cut) =   16,05 sec. (3574,54 ticks)
